Problem:    
Rows:       256
Columns:    89 (72 integer, 72 binary)
Non-zeros:  960
Status:     INTEGER OPTIMAL
Objective:  value = 21.332034 (MINimum)

   No.   Row name        Activity     Lower bound   Upper bound
------ ------------    ------------- ------------- -------------
     1 r.5                    21.332             0               
     2 r.6                   15.3075      -997.125               
     3 r.7                   1021.33             0               
     4 r.8                  -984.692      -993.587               
     5 r.9                   1021.33             0               
     6 r.10                 -990.399      -996.703               
     7 r.11                   21.332             0               
     8 r.12                 -991.527      -993.193               
     9 r.13                  1021.33             0               
    10 r.14                 -985.744      -995.345               
    11 r.15                   21.332             0               
    12 r.16                  14.2564      -989.628               
    13 r.17                   21.332             0               
    14 r.18                  11.7949       -997.95               
    15 r.19                  1021.33             0               
    16 r.20                 -992.957      -994.623               
    17 r.21                  1021.33             0               
    18 r.22                 -995.102      -996.994               
    19 r.23                   21.332             0               
    20 r.24                  15.4175      -993.336               
    21 r.25                  1021.33             0               
    22 r.26                  -999.91       -999.91               
    23 r.27                   21.332             0               
    24 r.28                 -996.927      -996.927               
    25 r.29                   21.332             0               
    26 r.30                   21.332      -992.834               
    27 r.31                  1021.33             0               
    28 r.32                 -978.668      -993.976               
    29 r.33                  1021.33             0               
    30 r.34                 -978.668      -992.924               
    31 r.35                   21.332             0               
    32 r.36                   21.332      -993.721               
    33 r.37                        1             1             = 
    34 r.38                        1             1             = 
    35 r.39                        1             1             = 
    36 r.40                        1             1             = 
    37 r.41                        1             1             = 
    38 r.42                        1             1             = 
    39 r.43                        1             1             = 
    40 r.44                        1             1             = 
    41 r.45                     1001             2               
    42 r.46                    -1001         -1001               
    43 r.47                  1994.29      -996.703               
    44 r.48                     1001             2               
    45 r.49                    -1001         -1001               
    46 r.50                  993.166      -993.193               
    47 r.51                     1001             2               
    48 r.52                    -1001         -1001               
    49 r.53                  1998.95      -995.345               
    50 r.54                     1001             2               
    51 r.55                    -1001         -1001               
    52 r.56                  1998.95      -989.628               
    53 r.57                     1000             2               
    54 r.58                    -1000         -1001               
    55 r.59                  1996.49       -997.95               
    56 r.60                        2             2               
    57 r.61                       -2         -1001               
    58 r.62                 -8.26462      -994.623               
    59 r.63                     1001             2               
    60 r.64                    -1001         -1001               
    61 r.65                  1989.59      -996.994               
    62 r.66                     1001             2               
    63 r.67                    -1001         -1001               
    64 r.68                  2000.11      -993.336               
    65 r.69                  13.6411      -997.125               
    66 r.70                 -986.359      -993.587               
    67 r.71                  1013.62      -997.125               
    68 r.72                  13.6164      -993.587               
    69 r.73                   6.0245      -992.834               
    70 r.74                 -993.976      -993.976               
    71 r.75                   6.0245      -992.834               
    72 r.76                 -993.976      -993.976               
    73 r.77                     1001             2               
    74 r.78                    -1001         -1001               
    75 r.79                  2006.02      -992.924               
    76 r.80                     1001             2               
    77 r.81                    -1001         -1001               
    78 r.82                  2006.02      -993.721               
    79 r.83                     1001             2               
    80 r.84                    -1001         -1001               
    81 r.85                  2005.71       2.87452               
    82 r.86                     1001             2               
    83 r.87                    -1001         -1001               
    84 r.88                  3006.83       6.41265               
    85 r.89                        2             2               
    86 r.90                       -2         -1001               
    87 r.91                 -995.345      -995.345               
    88 r.92                     1000             2               
    89 r.93                    -1000         -1001               
    90 r.94                  3005.78      -989.628               
    91 r.95                     1001             2               
    92 r.96                    -1001         -1001               
    93 r.97                  2002.19       -997.95               
    94 r.98                     1001             2               
    95 r.99                    -1001         -1001               
    96 r.100                 2998.57      -994.623               
    97 r.101                       2             2               
    98 r.102                      -2         -1001               
    99 r.103                -4.70288      -996.994               
   100 r.104                    1000             2               
   101 r.105                   -1000         -1001               
   102 r.106                 3006.94      -993.336               
   103 r.107                -992.065      -996.703               
   104 r.108                -993.193      -993.193               
   105 r.109                 7.91004      -996.703               
   106 r.110                 6.78196      -993.193               
   107 r.111                    1001             2               
   108 r.112                   -1001         -1001               
   109 r.113                 2011.73      -992.834               
   110 r.114                    1001             2               
   111 r.115                   -1001         -1001               
   112 r.116                 3012.86      -993.976               
   113 r.117                -988.269      -992.924               
   114 r.118                 11.7308      -993.721               
   115 r.119                 12.8589      -992.924               
   116 r.120                 1012.86      -993.721               
   117 r.121                    1001             2               
   118 r.122                   -1001         -1001               
   119 r.123                 2001.05       2.87452               
   120 r.124                    1001             2               
   121 r.125                   -1001         -1001               
   122 r.126                 2001.05       6.41265               
   123 r.127                       2             2               
   124 r.128                      -2         -1001               
   125 r.129                 995.345       3.29739               
   126 r.130                    1000             2               
   127 r.131                   -1000         -1001               
   128 r.132                 994.217       6.80673               
   129 r.133                -995.345      -995.345               
   130 r.134                 4.65514      -989.628               
   131 r.135                -994.639      -995.345               
   132 r.136                 5.36149      -989.628               
   133 r.137                       2             2               
   134 r.138                      -2         -1001               
   135 r.139                -9.35802      -996.994               
   136 r.140                    1000             2               
   137 r.141                   -1000         -1001               
   138 r.142                 2001.16      -993.336               
   139 r.143                 -987.41      -995.345               
   140 r.144                   12.59      -989.628               
   141 r.145                 12.5652      -995.345               
   142 r.146                 1012.57      -989.628               
   143 r.147                    1001             2               
   144 r.148                   -1001         -1001               
   145 r.149                 2007.08      -992.834               
   146 r.150                    1001             2               
   147 r.151                   -1001         -1001               
   148 r.152                 2007.08      -993.976               
   149 r.153                -992.924      -992.924               
   150 r.154                 7.07567      -993.721               
   151 r.155                -992.924      -992.924               
   152 r.156                 7.07567      -993.721               
   153 r.157                    1000             2               
   154 r.158                   -1000         -1001               
   155 r.159                 2005.71       2.87452               
   156 r.160                       2             2               
   157 r.161                      -2         -1001               
   158 r.162                 6.41266       6.41265               
   159 r.163                    1001             2               
   160 r.164                   -1001         -1001               
   161 r.165                    2000       3.29739               
   162 r.166                    1001             2               
   163 r.167                   -1001         -1001               
   164 r.168                 999.578       6.80673               
   165 r.169                    1001             2               
   166 r.170                   -1001         -1001               
   167 r.171                  1995.3      -996.994               
   168 r.172                    1001             2               
   169 r.173                   -1001         -1001               
   170 r.174                 2006.52      -993.336               
   171 r.175                 10.1285       -997.95               
   172 r.176                -994.623      -994.623               
   173 r.177                  1010.1       -997.95               
   174 r.178                 5.35173      -994.623               
   175 r.179                    1000             2               
   176 r.180                   -1000         -1001               
   177 r.181                 2011.73      -992.834               
   178 r.182                       2             2               
   179 r.183                      -2         -1001               
   180 r.184                -987.563      -993.976               
   181 r.185                -988.269      -992.924               
   182 r.186                 11.7308      -993.721               
   183 r.187                -987.563      -992.924               
   184 r.188                 12.4372      -993.721               
   185 r.189                    1001             2               
   186 r.190                   -1001         -1001               
   187 r.191                    2009       2.87452               
   188 r.192                    1001             2               
   189 r.193                   -1001         -1001               
   190 r.194                 2001.05       6.41265               
   191 r.195                       2             2               
   192 r.196                      -2         -1001               
   193 r.197                 3.29739       3.29739               
   194 r.198                    1000             2               
   195 r.199                   -1000         -1001               
   196 r.200                 994.217       6.80673               
   197 r.201                       2             2               
   198 r.202                      -2         -1001               
   199 r.203                 7.95253       4.65514               
   200 r.204                    1000             2               
   201 r.205                   -1000         -1001               
   202 r.206                    2000       10.3718               
   203 r.207                    1001             2               
   204 r.208                   -1001         -1001               
   205 r.209                 2005.49        2.0501               
   206 r.210                    1001             2               
   207 r.211                   -1001         -1001               
   208 r.212                 1992.79       5.37651               
   209 r.213                -996.768      -996.994               
   210 r.214                 13.7511      -993.336               
   211 r.215                 3.20716      -996.994               
   212 r.216                 1013.73      -993.336               
   213 r.217                 15.0282      -992.834               
   214 r.218                -984.972      -993.976               
   215 r.219                 7.07567      -992.834               
   216 r.220                -992.924      -993.976               
   217 r.221                -984.972      -992.924               
   218 r.222                 15.0282      -993.721               
   219 r.223                -992.924      -992.924               
   220 r.224                 7.07567      -993.721               
   221 r.225                    1001             2               
   222 r.226                   -1001         -1001               
   223 r.227                 1988.27       3.29739               
   224 r.228                    1001             2               
   225 r.229                   -1001         -1001               
   226 r.230                 987.141       6.80673               
   227 r.231                    1001             2               
   228 r.232                   -1001         -1001               
   229 r.233                 1992.92       4.65514               
   230 r.234                    1001             2               
   231 r.235                   -1001         -1001               
   232 r.236                 1992.92       10.3718               
   233 r.237                    1000             2               
   234 r.238                   -1000         -1001               
   235 r.239                 1990.46        2.0501               
   236 r.240                       2             2               
   237 r.241                      -2         -1001               
   238 r.242                 985.711       5.37651               
   239 r.243                    1001             2               
   240 r.244                   -1001         -1001               
   241 r.245                    2000      -992.924               
   242 r.246                    1001             2               
   243 r.247                   -1001         -1001               
   244 r.248                    2000      -993.721               
   245 r.249                    1001             2               
   246 r.250                   -1001         -1001               
   247 r.251                 1993.98       2.87452               
   248 r.252                    1001             2               
   249 r.253                   -1001         -1001               
   250 r.254                 1993.98       6.41265               
   251 r.255                    1001             2               
   252 r.256                   -1001         -1001               
   253 r.257                    2000        7.1663               
   254 r.258                    1001             2               
   255 r.259                   -1001         -1001               
   256 r.260                    2000        6.0245               

   No. Column name       Activity     Lower bound   Upper bound
------ ------------    ------------- ------------- -------------
     1 tt                     21.332             0               
     2 s_1_1        *              0             0             1 
     3 t_1_1                  6.0245             0               
     4 s_1_7        *              0             0             1 
     5 s_2_1        *              1             0             1 
     6 t_2_1                  6.0245             0               
     7 s_2_7        *              1             0             1 
     8 s_1_2        *              1             0             1 
     9 t_1_2                 11.7308             0               
    10 s_1_8        *              1             0             1 
    11 s_2_2        *              0             0             1 
    12 t_2_2                 1012.86             0               
    13 s_2_8        *              0             0             1 
    14 s_1_3        *              1             0             1 
    15 t_1_3                 7.07567             0               
    16 s_2_3        *              0             0             1 
    17 t_2_3                 7.07567             0               
    18 s_1_4        *              0             0             1 
    19 t_1_4                 11.7308             0               
    20 s_2_4        *              1             0             1 
    21 t_2_4                 12.4372             0               
    22 s_1_5        *              1             0             1 
    23 t_1_5                 15.0282             0               
    24 s_2_5        *              0             0             1 
    25 t_2_5                 7.07567             0               
    26 s_1_6        *              1             0             1 
    27 t_1_6                 19.6656             0               
    28 s_2_6        *              0             0             1 
    29 t_2_6                 1019.64             0               
    30 t_1_7                       0             0               
    31 t_2_7                       0             0               
    32 t_1_8                       0             0               
    33 t_2_8                       0             0               
    34 r_1_1_2      *              1             0             1 
    35 u_1_1_2      *              0             0             1 
    36 r_2_1_2      *              1             0             1 
    37 u_2_1_2      *              0             0             1 
    38 r_1_1_3      *              1             0             1 
    39 u_1_1_3      *              0             0             1 
    40 r_2_1_3      *              1             0             1 
    41 u_2_1_3      *              0             0             1 
    42 r_1_1_4      *              1             0             1 
    43 u_1_1_4      *              0             0             1 
    44 r_2_1_4      *              0             0             1 
    45 u_2_1_4      *              0             0             1 
    46 r_1_1_5      *              1             0             1 
    47 u_1_1_5      *              0             0             1 
    48 r_2_1_5      *              1             0             1 
    49 u_2_1_5      *              0             0             1 
    50 r_1_1_8      *              1             0             1 
    51 u_1_1_8      *              0             0             1 
    52 r_2_1_8      *              1             0             1 
    53 u_2_1_8      *              0             0             1 
    54 r_1_2_3      *              0             0             1 
    55 u_1_2_3      *              1             0             1 
    56 r_2_2_3      *              1             0             1 
    57 u_2_2_3      *              0             0             1 
    58 r_1_2_4      *              1             0             1 
    59 u_1_2_4      *              0             0             1 
    60 r_2_2_4      *              1             0             1 
    61 u_2_2_4      *              0             0             1 
    62 r_1_2_5      *              0             0             1 
    63 u_1_2_5      *              0             0             1 
    64 r_2_2_5      *              1             0             1 
    65 u_2_2_5      *              0             0             1 
    66 r_1_2_7      *              1             0             1 
    67 u_1_2_7      *              0             0             1 
    68 r_2_2_7      *              1             0             1 
    69 u_2_2_7      *              0             0             1 
    70 r_1_3_5      *              0             0             1 
    71 u_1_3_5      *              0             0             1 
    72 r_2_3_5      *              1             0             1 
    73 u_2_3_5      *              0             0             1 
    74 r_1_3_7      *              1             0             1 
    75 u_1_3_7      *              0             0             1 
    76 r_2_3_7      *              1             0             1 
    77 u_2_3_7      *              0             0             1 
    78 r_1_4_5      *              1             0             1 
    79 u_1_4_5      *              0             0             1 
    80 r_2_4_5      *              1             0             1 
    81 u_2_4_5      *              0             0             1 
    82 r_1_4_7      *              1             0             1 
    83 u_1_4_7      *              0             0             1 
    84 r_2_4_7      *              0             0             1 
    85 u_2_4_7      *              1             0             1 
    86 r_1_7_8      *              1             0             1 
    87 u_1_7_8      *              0             0             1 
    88 r_2_7_8      *              1             0             1 
    89 u_2_7_8      *              0             0             1 

Integer feasibility conditions:

KKT.PE: max.abs.err = 4.55e-13 on row 90
        max.rel.err = 7.94e-17 on row 171
        High quality

KKT.PB: max.abs.err = 1.14e-13 on row 24
        max.rel.err = 5.17e-16 on row 193
        High quality

End of output
